 Run started: Thu, 28 Apr 2016 19:34:50 +0100

 Atomic calculation performed for Mg: 1s2 2s2 2p6 3s2

 Converged in 47 iterations to an ae energy of -5427.407 eV

   | Pseudopotential Report - Date of generation 28-04-2016   |
   | Element: Mg Ionic charge: 10.00 Level of theory: LDA     |
   | Atomic Solver: Koelling-Harmon                           |
   |               Reference Electronic Structure             |
   |         Orbital         Occupation         Energy        |
   |            2s              2.000           -2.914        |
   |            2p              6.000           -1.717        |
   |            3s              2.000           -0.176        |
   |                 Pseudopotential Definition               |
   |        Beta     l      e      Rc     scheme   norm       |
   |          1      0   -2.914   1.804     qc      0         |
   |          2      0   -0.176   1.804     qc      0         |
   |          3      0    0.250   1.804     qc      0         |
   |          4      1   -1.717   1.804     qc      0         |
   |          5      1    0.250   1.804     qc      0         |
   |          6      2    0.000   1.804     qc      0         |
   |          7      2    0.250   1.804     qc      0         |
   |         loc     3    0.000   1.804     pn      0         |
   | Augmentation charge Rinner = 1.261                       |
   | Partial core correction Rc = 1.261                       |
   | "3|1.8|7|8|9|20U:30:21:32"                               |
   |      Author: Chris J. Pickard, Cambridge University      |

 Atomic calculation performed for Ca: 1s2 2s2 2p6 3s2 3p6 4s2

 Converged in 44 iterations to an ae energy of -18468.059 eV

   | Pseudopotential Report - Date of generation 28-04-2016   |
   | Element: Ca Ionic charge: 10.00 Level of theory: LDA     |
   | Atomic Solver: Koelling-Harmon                           |
   |               Reference Electronic Structure             |
   |         Orbital         Occupation         Energy        |
   |            3s              2.000           -1.721        |
   |            3p              6.000           -1.028        |
   |            4s              2.000           -0.142        |
   |                 Pseudopotential Definition               |
   |        Beta     l      e      Rc     scheme   norm       |
   |          1      0   -1.721   2.005     qc      0         |
   |          2      0   -0.142   2.005     qc      0         |
   |          3      0    0.250   2.005     qc      0         |
   |          4      1   -1.028   2.005     qc      0         |
   |          5      1    0.250   2.005     qc      0         |
   |          6      2    0.000   2.005     qc      0         |
   |          7      2    0.250   2.005     qc      0         |
   |         loc     3    0.000   2.005     pn      0         |
   | Augmentation charge Rinner = 1.401                       |
   | Partial core correction Rc = 1.401                       |
   | "3|2.0|7|8|9|30U:40:31:32"                               |
   |      Author: Chris J. Pickard, Cambridge University      |

 Pseudo atomic calculation performed for Mg 2s2 2p6 3s2

 Converged in 19 iterations to a total energy of -1684.3182 eV

[...]

 Calculation not parallelised.

 ************************************ Title ************************************
 MgO

 ***************************** General Parameters ******************************

 output verbosity                               : normal  (1)
 write checkpoint data to                       : ../1.check
 type of calculation                            : single point energy
 stress calculation                             : on
 density difference calculation                 : off
 electron localisation func (ELF) calculation   : off
 Hirshfeld analysis                             : off
 unlimited duration calculation
 timing information                             : on
 write final potential to formatted file        : off
 write final density to formatted file          : off
 write BibTeX reference list                    : on
 write OTFG pseudopotential files               : on
 checkpoint writing                             : both castep_bin and check files

 output         length unit                     : A
 output           mass unit                     : amu
 output           time unit                     : ps
 output         charge unit                     : e
 output           spin unit                     : hbar/2
 output         energy unit                     : eV
 output          force unit                     : eV/A
 output       velocity unit                     : A/ps
 output       pressure unit                     : GPa
 output     inv_length unit                     : 1/A
 output      frequency unit                     : cm-1
 output force constant unit                     : eV/A**2
 output         volume unit                     : A**3
 output   IR intensity unit                     : (D/A)**2/amu
 output         dipole unit                     : D
 output         efield unit                     : eV/A/e
 output        entropy unit                     : J/mol/K

 wavefunctions paging                           : none
 random number generator seed                   : randomised (193450255)
 data distribution                              : optimal for this architecture
 optimization strategy                          : maximize speed(+++)

 *********************** Exchange-Correlation Parameters ***********************

 using functional                               : Local Density Approximation
 relativistic treatment                         : Koelling-Harmon
 DFT+D: Semi-empirical dispersion correction    : off

 ************************* Pseudopotential Parameters **************************

 pseudopotential representation                 : reciprocal space
 <beta|phi> representation                      : reciprocal space
 spin-orbit coupling                            : off

 **************************** Basis Set Parameters *****************************

 plane wave basis set cut-off                   :   280.0000   eV
 size of standard grid                          :     2.0000
 size of   fine   gmax                          :    17.1454   1/A
 finite basis set correction                    : automatic
 number of sample energies                      :          3
           sample  spacing                      :     5.0000   eV

 **************************** Electronic Parameters ****************************

 number of  electrons                           :  80.00
 net charge of system                           :  0.000
 treating system as non-spin-polarized
 number of bands                                :         48

 ********************* Electronic Minimization Parameters **********************

 Method: Treating system as metallic with density mixing treatment of electrons,
         and number of  SD  steps               :          1
         and number of  CG  steps               :          4

 total energy / atom convergence tol.           : 0.1000E-06   eV
 eigen-energy convergence tolerance             : 0.2000E-07   eV
 max force / atom convergence tol.              : ignored
 convergence tolerance window                   :          3   cycles
 max. number of SCF cycles                      :         60
 number of fixed-spin iterations                :         10
 smearing scheme                                : Gaussian
 smearing width                                 : 0.2000       eV
 Fermi energy convergence tolerance             : 0.2721E-13   eV
 periodic dipole correction                     : NONE

 ************************** Density Mixing Parameters **************************

 density-mixing scheme                          : Pulay
 max. length of mixing history                  :         30
 charge density mixing amplitude                : 0.8000
 cut-off energy for mixing                      :  280.0       eV

 *********************** Population Analysis Parameters ************************

 Population analysis with cutoff                :  3.000       A

                                      Unit Cell
        Real Lattice(A)                      Reciprocal Lattice(1/A)
   4.2000000   0.0000000   0.0000000        1.4959965   0.0000000   0.0000000
   0.0000000   4.2000000   0.0000000        0.0000000   1.4959965   0.0000000
   0.0000000   0.0000000   4.2000000        0.0000000   0.0000000   1.4959965

                       Lattice parameters(A)       Cell Angles
                    a =    4.200000          alpha =   90.000000
                    b =    4.200000          beta  =   90.000000
                    c =    4.200000          gamma =   90.000000

                       Current cell volume =   74.088000       A**3

                                     Cell Contents
                         Total number of ions in cell =    8
                      Total number of species in cell =    2
                        Max number of any one species =    7

            x  Element    Atom        Fractional coordinates of atoms  x
            x            Number           u          v          w      x
            x  Mg           1         0.000000   0.000000   0.000000   x
            x  Ca           1         0.500000   0.000000   0.000000   x
            x  Ca           2         0.000000   0.500000   0.000000   x
            x  Ca           3         0.500000   0.500000   0.000000   x
            x  Ca           4         0.000000   0.000000   0.500000   x
            x  Ca           5         0.500000   0.000000   0.500000   x
            x  Ca           6         0.000000   0.500000   0.500000   x
            x  Ca           7         0.500000   0.500000   0.500000   x

                         No user defined ionic velocities

                                   Details of Species

                               Mass of species in AMU
                                    Mg   24.3050000
                                    Ca   40.0780000

                          Electric Quadrupole Moment (Barn)
                                    Mg    0.1994000 Isotope 25
                                    Ca   -0.0408000 Isotope 43

                          Files used for pseudopotentials:
                                    Mg 3|1.8|7|8|9|20U:30:21:32
                                    Ca 3|2.0|7|8|9|30U:40:31:32

                              k-Points For BZ Sampling
                       MP grid size for SCF calculation is  3  3  3
                            with an offset of   0.000  0.000  0.000
                       Number of kpoints used =             4

                               Symmetry and Constraints

                      Maximum deviation from symmetry = 0.940008E-15     ANG

                      Number of symmetry operations   =          48
                      Number of ionic constraints     =           3
                      Point group of crystal =    32: Oh, m-3m, 4/m -3 2/m
                      Space group of crystal =   221: Pm-3m, -P 4 2 3

             Set iprint > 1 for details on symmetry rotations/translations

                         Centre of mass is constrained
             Set iprint > 1 for details of linear ionic constraints

                         Number of cell constraints= 5
                         Cell constraints are:  1 1 1 0 0 0

                         External pressure/stress (GPa)
                          0.00000   0.00000   0.00000
                                    0.00000   0.00000
                                              0.00000

Final energy, E             =  -8667.087695589     eV
Final free energy (E-TS)    =  -8667.181870176     eV
(energies not corrected for finite basis set)

NB est. 0K energy (E-0.5TS)      =  -8667.134782883     eV

Calculating total energy with cut-off of  275.000eV.
------------------------------------------------------------------------ <-- SCF
SCF loop      Energy           Fermi           Energy gain       Timer   <-- SCF
                               energy          per atom          (sec)   <-- SCF
------------------------------------------------------------------------ <-- SCF
Initial  -8.66708770E+003  0.00000000E+000                        15.02  <-- SCF
      1  -8.66733652E+003  1.62186519E+001   3.11034685E-002      15.40  <-- SCF
      2  -8.66733663E+003  1.62186515E+001   1.32829768E-005      15.85  <-- SCF
      3  -8.66733647E+003  1.62212544E+001  -1.96534244E-005      16.28  <-- SCF
      4  -8.66733647E+003  1.62197108E+001   2.55853650E-007      16.72  <-- SCF
      5  -8.66733649E+003  1.62210071E+001   1.83285793E-006      17.17  <-- SCF
      6  -8.66733648E+003  1.62206524E+001  -9.09293535E-007      17.61  <-- SCF
      7  -8.66733647E+003  1.62202485E+001  -1.68462671E-006      18.02  <-- SCF
      8  -8.66733647E+003  1.62204076E+001  -6.63521850E-008      18.33  <-- SCF
      9  -8.66733647E+003  1.62203968E+001  -1.28886124E-009      18.63  <-- SCF
------------------------------------------------------------------------ <-- SCF

[...]

Calculating total energy with cut-off of  280.000eV.
------------------------------------------------------------------------ <-- SCF
SCF loop      Energy           Fermi           Energy gain       Timer   <-- SCF
                               energy          per atom          (sec)   <-- SCF
------------------------------------------------------------------------ <-- SCF
Initial  -8.66724240E+003  0.00000000E+000                        18.81  <-- SCF
      1  -8.66743146E+003  1.62198757E+001   2.36329285E-002      19.16  <-- SCF
      2  -8.66743151E+003  1.62198757E+001   6.69595508E-006      19.60  <-- SCF
      3  -8.66743145E+003  1.62213135E+001  -8.04150300E-006      20.05  <-- SCF
      4  -8.66743145E+003  1.62203023E+001   3.02725778E-009      20.49  <-- SCF
      5  -8.66743145E+003  1.62213310E+001   1.36137660E-007      20.93  <-- SCF
      6  -8.66743145E+003  1.62205765E+001  -2.98936147E-007      21.37  <-- SCF
      7  -8.66743145E+003  1.62208059E+001   6.48046235E-009      21.72  <-- SCF
      8  -8.66743145E+003  1.62207598E+001  -6.12317362E-008      22.04  <-- SCF
------------------------------------------------------------------------ <-- SCF

Final energy, E             =  -8667.337193155     eV
Final free energy (E-TS)    =  -8667.431448086     eV
(energies not corrected for finite basis set)

NB est. 0K energy (E-0.5TS)      =  -8667.384320620     eV

 For future reference: finite basis dEtot/dlog(Ecut) =      -6.239181eV
 Total energy corrected for finite basis set =   -8667.438493 eV

 ***************** Symmetrised Forces *****************
 *            Cartesian components (eV/A)             *
 *                   x            y            z      *
 * Mg        1      0.00000      0.00000      0.00000 *
 * Ca        1      0.00000      0.00000      0.00000 *
 * Ca        2      0.00000      0.00000      0.00000 *
 * Ca        3      0.00000      0.00000      0.00000 *
 * Ca        4      0.00000      0.00000      0.00000 *
 * Ca        5      0.00000      0.00000      0.00000 *
 * Ca        6      0.00000      0.00000      0.00000 *
 * Ca        7      0.00000      0.00000      0.00000 *

 *********** Symmetrised Stress Tensor ***********
 *          Cartesian components (GPa)           *
 *             x             y             z     *
 *  x   -193.107308      0.000000      0.000000  *
 *  y      0.000000   -193.107308      0.000000  *
 *  z      0.000000      0.000000   -193.107308  *
 *  Pressure:  193.1073                          *

[...]

 Pseudo atomic calculation performed for Ca 3s2 3p6 4s2

 Converged in 24 iterations to a total energy of -1001.5365 eV

Charge spilling parameter for spin component 1 = 0.21%

     Atomic Populations (Mulliken)
Species   Ion     s      p      d      f     Total  Charge (e)
  Mg       1     2.56   7.45   0.00   0.00  10.01    -0.01
  Ca       1     1.97   5.76   2.33   0.00  10.06    -0.06
  Ca       2     1.97   5.76   2.33   0.00  10.06    -0.06
  Ca       3     1.87   5.74   2.30   0.00   9.90     0.10
  Ca       4     1.97   5.76   2.33   0.00  10.06    -0.06
  Ca       5     1.87   5.74   2.30   0.00   9.90     0.10
  Ca       6     1.87   5.74   2.30   0.00   9.90     0.10
  Ca       7     2.15   5.75   2.20   0.00  10.10    -0.10

            Bond              Population      Length (A)
         Ca 6 -- Ca 7             -2.35        2.10000
         Ca 5 -- Ca 7             -2.35        2.10000
         Ca 4 -- Ca 6             -2.10        2.10000
         Ca 4 -- Ca 5             -2.10        2.10000
         Ca 3 -- Ca 7             -2.35        2.10000
         Ca 2 -- Ca 6             -2.10        2.10000
         Ca 2 -- Ca 3             -2.10        2.10000
         Ca 1 -- Ca 5             -2.10        2.10000
         Ca 1 -- Ca 3             -2.10        2.10000
         Mg 1 -- Ca 4             -0.62        2.10000
         Mg 1 -- Ca 2             -0.62        2.10000
         Mg 1 -- Ca 1             -0.62        2.10000
         Ca 5 -- Ca 6              0.89        2.96985
         Ca 4 -- Ca 7              1.18        2.96985
         Ca 3 -- Ca 6              0.89        2.96985
         Ca 3 -- Ca 5              0.89        2.96985
         Ca 2 -- Ca 7              1.18        2.96985
         Ca 2 -- Ca 4             -1.87        2.96985
         Ca 1 -- Ca 7              1.18        2.96985
         Ca 1 -- Ca 4             -1.87        2.96985
         Ca 1 -- Ca 2             -1.87        2.96985
         Mg 1 -- Ca 6             -0.23        2.96985
         Mg 1 -- Ca 5             -0.23        2.96985
         Mg 1 -- Ca 3             -0.23        2.96985

Writing analysis data to ../1.castep_bin

Writing model to ../1.check

 A BibTeX formatted list of references used in this run has been written to
 ../1.bib

Initialisation time =      8.91 s
Calculation time    =     15.36 s
Finalisation time   =      0.02 s
Total time          =     24.29 s