<<<<<<< HEAD
 Run started: Wed, 27 Apr 2016 12:03:41 +0100
 Run started: Thu, 28 Apr 2016 19:35:14 +0100
>>>>>>> test

 Atomic calculation performed for Mg: 1s2 2s2 2p6 3s2

 Converged in 47 iterations to an ae energy of -5427.407 eV

<<<<<<< HEAD
   | Pseudopotential Report - Date of generation 27-04-2016   |
   | Pseudopotential Report - Date of generation 28-04-2016   |
>>>>>>> test
   | Element: Mg Ionic charge: 10.00 Level of theory: LDA     |
   | Atomic Solver: Koelling-Harmon                           |
   |               Reference Electronic Structure             |
   |         Orbital         Occupation         Energy        |
   |            2s              2.000           -2.914        |
   |            2p              6.000           -1.717        |
   |            3s              2.000           -0.176        |
   |                 Pseudopotential Definition               |
   |        Beta     l      e      Rc     scheme   norm       |
   |          1      0   -2.914   1.804     qc      0         |
   |          2      0   -0.176   1.804     qc      0         |
   |          3      0    0.250   1.804     qc      0         |
   |          4      1   -1.717   1.804     qc      0         |
   |          5      1    0.250   1.804     qc      0         |
   |          6      2    0.000   1.804     qc      0         |
   |          7      2    0.250   1.804     qc      0         |
   |         loc     3    0.000   1.804     pn      0         |
   | Augmentation charge Rinner = 1.261                       |
   | Partial core correction Rc = 1.261                       |
   | "3|1.8|7|8|9|20U:30:21:32"                               |
   |      Author: Chris J. Pickard, Cambridge University      |

 Atomic calculation performed for Ca: 1s2 2s2 2p6 3s2 3p6 4s2

 Converged in 44 iterations to an ae energy of -18468.059 eV

<<<<<<< HEAD
   | Pseudopotential Report - Date of generation 27-04-2016   |
   | Pseudopotential Report - Date of generation 28-04-2016   |
>>>>>>> test
   | Element: Ca Ionic charge: 10.00 Level of theory: LDA     |
   | Atomic Solver: Koelling-Harmon                           |
   |               Reference Electronic Structure             |
   |         Orbital         Occupation         Energy        |
   |            3s              2.000           -1.721        |
   |            3p              6.000           -1.028        |
   |            4s              2.000           -0.142        |
   |                 Pseudopotential Definition               |
   |        Beta     l      e      Rc     scheme   norm       |
   |          1      0   -1.721   2.005     qc      0         |
   |          2      0   -0.142   2.005     qc      0         |
   |          3      0    0.250   2.005     qc      0         |
   |          4      1   -1.028   2.005     qc      0         |
   |          5      1    0.250   2.005     qc      0         |
   |          6      2    0.000   2.005     qc      0         |
   |          7      2    0.250   2.005     qc      0         |
   |         loc     3    0.000   2.005     pn      0         |
   | Augmentation charge Rinner = 1.401                       |
   | Partial core correction Rc = 1.401                       |
   | "3|2.0|7|8|9|30U:40:31:32"                               |
   |      Author: Chris J. Pickard, Cambridge University      |

 Pseudo atomic calculation performed for Mg 2s2 2p6 3s2

 Converged in 19 iterations to a total energy of -1684.3182 eV

[...]

 Calculation not parallelised.

 ************************************ Title ************************************
 MgO

 ***************************** General Parameters ******************************

 output verbosity                               : normal  (1)
 write checkpoint data to                       : ../2.check
 type of calculation                            : single point energy
 stress calculation                             : on
 density difference calculation                 : off
 electron localisation func (ELF) calculation   : off
 Hirshfeld analysis                             : off
 unlimited duration calculation
 timing information                             : on
 write final potential to formatted file        : off
 write final density to formatted file          : off
 write BibTeX reference list                    : on
 write OTFG pseudopotential files               : on
 checkpoint writing                             : both castep_bin and check files

 output         length unit                     : A
 output           mass unit                     : amu
 output           time unit                     : ps
 output         charge unit                     : e
 output           spin unit                     : hbar/2
 output         energy unit                     : eV
 output          force unit                     : eV/A
 output       velocity unit                     : A/ps
 output       pressure unit                     : GPa
 output     inv_length unit                     : 1/A
 output      frequency unit                     : cm-1
 output force constant unit                     : eV/A**2
 output         volume unit                     : A**3
 output   IR intensity unit                     : (D/A)**2/amu
 output         dipole unit                     : D
 output         efield unit                     : eV/A/e
 output        entropy unit                     : J/mol/K

 wavefunctions paging                           : none
<<<<<<< HEAD
 random number generator seed                   : randomised (120341566)
 random number generator seed                   : randomised (193514584)
>>>>>>> test
 data distribution                              : optimal for this architecture
 optimization strategy                          : maximize speed(+++)

 *********************** Exchange-Correlation Parameters ***********************

 using functional                               : Local Density Approximation
 relativistic treatment                         : Koelling-Harmon
 DFT+D: Semi-empirical dispersion correction    : off

 ************************* Pseudopotential Parameters **************************

 pseudopotential representation                 : reciprocal space
 <beta|phi> representation                      : reciprocal space
 spin-orbit coupling                            : off

 **************************** Basis Set Parameters *****************************

 plane wave basis set cut-off                   :   280.0000   eV
 size of standard grid                          :     2.0000
 size of   fine   gmax                          :    17.1454   1/A
 finite basis set correction                    : automatic
 number of sample energies                      :          3
           sample  spacing                      :     5.0000   eV

 **************************** Electronic Parameters ****************************

 number of  electrons                           :  80.00
 net charge of system                           :  0.000
 treating system as non-spin-polarized
 number of bands                                :         48

 ********************* Electronic Minimization Parameters **********************

 Method: Treating system as metallic with density mixing treatment of electrons,
         and number of  SD  steps               :          1
         and number of  CG  steps               :          4

 total energy / atom convergence tol.           : 0.1000E-06   eV
 eigen-energy convergence tolerance             : 0.2000E-07   eV
 max force / atom convergence tol.              : ignored
 convergence tolerance window                   :          3   cycles
 max. number of SCF cycles                      :         60
 number of fixed-spin iterations                :         10
 smearing scheme                                : Gaussian
 smearing width                                 : 0.2000       eV
 Fermi energy convergence tolerance             : 0.2721E-13   eV
 periodic dipole correction                     : NONE

 ************************** Density Mixing Parameters **************************

 density-mixing scheme                          : Pulay
 max. length of mixing history                  :         30
 charge density mixing amplitude                : 0.8000
 cut-off energy for mixing                      :  280.0       eV

 *********************** Population Analysis Parameters ************************

 Population analysis with cutoff                :  3.000       A

                                      Unit Cell
        Real Lattice(A)                      Reciprocal Lattice(1/A)
   4.2000000   0.0000000   0.0000000        1.4959965   0.0000000   0.0000000
   0.0000000   4.2000000   0.0000000        0.0000000   1.4959965   0.0000000
   0.0000000   0.0000000   4.2000000        0.0000000   0.0000000   1.4959965

                       Lattice parameters(A)       Cell Angles
                    a =    4.200000          alpha =   90.000000
                    b =    4.200000          beta  =   90.000000
                    c =    4.200000          gamma =   90.000000

                       Current cell volume =   74.088000       A**3

                                     Cell Contents
                         Total number of ions in cell =    8
                      Total number of species in cell =    2
                        Max number of any one species =    6

            x  Element    Atom        Fractional coordinates of atoms  x
            x            Number           u          v          w      x
            x  Mg           1         0.000000   0.000000   0.000000   x
<<<<<<< HEAD
            x  Mg           2         0.500000   0.000000   0.000000   x
            x  Ca           1         0.000000   0.500000   0.000000   x
            x  Mg           2         0.000000   0.500000   0.000000   x
            x  Ca           1         0.500000   0.000000   0.000000   x
>>>>>>> test
            x  Ca           2         0.500000   0.500000   0.000000   x
            x  Ca           3         0.000000   0.000000   0.500000   x
            x  Ca           4         0.500000   0.000000   0.500000   x
            x  Ca           5         0.000000   0.500000   0.500000   x
            x  Ca           6         0.500000   0.500000   0.500000   x

                         No user defined ionic velocities

                                   Details of Species

                               Mass of species in AMU
                                    Mg   24.3050000
                                    Ca   40.0780000

                          Electric Quadrupole Moment (Barn)
                                    Mg    0.1994000 Isotope 25
                                    Ca   -0.0408000 Isotope 43

                          Files used for pseudopotentials:
                                    Mg 3|1.8|7|8|9|20U:30:21:32
                                    Ca 3|2.0|7|8|9|30U:40:31:32

                              k-Points For BZ Sampling
                       MP grid size for SCF calculation is  3  3  3
                            with an offset of   0.000  0.000  0.000
                       Number of kpoints used =             6

                               Symmetry and Constraints

                      Cell is a supercell containing 2 primitive cells
                      Maximum deviation from symmetry = 0.940008E-15     ANG

                      Number of symmetry operations   =          32
                      Number of ionic constraints     =           3
                      Point group of crystal =    15: D4h, 4/mmm, 4/m 2/m 2/m
                      Space group of crystal =   123: P4/mmm, -P 4 2

             Set iprint > 1 for details on symmetry rotations/translations

                         Centre of mass is constrained
             Set iprint > 1 for details of linear ionic constraints

                         Number of cell constraints= 5
                         Cell constraints are:  1 1 1 0 0 0

                         External pressure/stress (GPa)
                          0.00000   0.00000   0.00000
                                    0.00000   0.00000
                                              0.00000

Final energy, E             =  -9352.125911633     eV
Final free energy (E-TS)    =  -9352.262403191     eV
(energies not corrected for finite basis set)

NB est. 0K energy (E-0.5TS)      =  -9352.194157412     eV
Initial  -7.51612311E+003  0.00000000E+000                        10.19  <-- SCF
      1  -9.18232063E+003  1.65111436E+001   2.08274690E+002      10.90  <-- SCF
      2  -9.35126721E+003  1.50536355E+001   2.11183223E+001      11.48  <-- SCF
      3  -9.35568773E+003  1.52400254E+001   5.52565687E-001      12.09  <-- SCF
      4  -9.35439991E+003  1.56024907E+001  -1.60977492E-001      12.74  <-- SCF
      5  -9.35227640E+003  1.55739327E+001  -2.65438711E-001      13.39  <-- SCF
      6  -9.35226351E+003  1.55515568E+001  -1.61189821E-003      14.07  <-- SCF
      7  -9.35226258E+003  1.55587986E+001  -1.15696526E-004      14.74  <-- SCF
      8  -9.35226242E+003  1.55580420E+001  -2.00875263E-005      15.40  <-- SCF
      9  -9.35226241E+003  1.55580128E+001  -1.90265617E-006      16.05  <-- SCF
     10  -9.35226240E+003  1.55580737E+001  -2.62726996E-007      16.57  <-- SCF
     11  -9.35226240E+003  1.55580559E+001   1.65312985E-009      17.01  <-- SCF
     12  -9.35226240E+003  1.55580660E+001   6.47137497E-010      17.43  <-- SCF
------------------------------------------------------------------------ <-- SCF

[...]

NB est. 0K energy (E-0.5TS)      =  -9352.194158336     eV
>>>>>>> test

Calculating total energy with cut-off of  275.000eV.
------------------------------------------------------------------------ <-- SCF
SCF loop      Energy           Fermi           Energy gain       Timer   <-- SCF
                               energy          per atom          (sec)   <-- SCF
------------------------------------------------------------------------ <-- SCF
<<<<<<< HEAD
Initial  -9.35212591E+003  0.00000000E+000                        16.95  <-- SCF
      1  -9.35243454E+003  1.55559247E+001   3.85782310E-002      17.50  <-- SCF
      2  -9.35243468E+003  1.55559243E+001   1.81780660E-005      18.19  <-- SCF
      3  -9.35243450E+003  1.55589662E+001  -2.24644863E-005      18.81  <-- SCF
      4  -9.35243456E+003  1.55561162E+001   7.02214969E-006      19.47  <-- SCF
      5  -9.35243481E+003  1.55599047E+001   3.19331593E-005      20.11  <-- SCF
      6  -9.35243451E+003  1.55583649E+001  -3.85518699E-005      20.74  <-- SCF
      7  -9.35243449E+003  1.55577453E+001  -1.48817610E-006      21.34  <-- SCF
      8  -9.35243449E+003  1.55578541E+001  -1.25367180E-008      21.78  <-- SCF
      9  -9.35243449E+003  1.55578499E+001   7.86155083E-010      22.19  <-- SCF
------------------------------------------------------------------------ <-- SCF

[...]

Calculating total energy with cut-off of  280.000eV.
------------------------------------------------------------------------ <-- SCF
SCF loop      Energy           Fermi           Energy gain       Timer   <-- SCF
                               energy          per atom          (sec)   <-- SCF
------------------------------------------------------------------------ <-- SCF
<<<<<<< HEAD
Initial  -9.35229762E+003  0.00000000E+000                        22.39  <-- SCF
      1  -9.35253831E+003  1.55558360E+001   3.00853365E-002      22.90  <-- SCF
      2  -9.35253838E+003  1.55558362E+001   9.28422741E-006      23.54  <-- SCF
      3  -9.35253831E+003  1.55572660E+001  -8.66918829E-006      24.19  <-- SCF
      4  -9.35253832E+003  1.55560966E+001   1.31003502E-006      24.86  <-- SCF
      5  -9.35253840E+003  1.55572966E+001   9.60709895E-006      25.52  <-- SCF
      6  -9.35253832E+003  1.55571472E+001  -1.02300308E-005      26.18  <-- SCF
      7  -9.35253831E+003  1.55565948E+001  -9.23487056E-007      26.78  <-- SCF
      8  -9.35253831E+003  1.55567622E+001  -1.81463387E-008      27.20  <-- SCF
      9  -9.35253831E+003  1.55567451E+001   7.44391802E-011      27.62  <-- SCF
------------------------------------------------------------------------ <-- SCF

[...]

NB est. 0K energy (E-0.5TS)      =  -9352.469760936     eV
Initial  -9.35229763E+003  0.00000000E+000                        23.10  <-- SCF
      1  -9.35253831E+003  1.55558360E+001   3.00853363E-002      23.62  <-- SCF
      2  -9.35253838E+003  1.55558362E+001   9.28419203E-006      24.23  <-- SCF
      3  -9.35253831E+003  1.55572660E+001  -8.66897541E-006      24.87  <-- SCF
      4  -9.35253832E+003  1.55560966E+001   1.31022857E-006      25.50  <-- SCF
      5  -9.35253840E+003  1.55572966E+001   9.60889922E-006      26.15  <-- SCF
      6  -9.35253832E+003  1.55571472E+001  -1.02321500E-005      26.79  <-- SCF
      7  -9.35253831E+003  1.55565948E+001  -9.23383422E-007      27.35  <-- SCF
      8  -9.35253831E+003  1.55567622E+001  -1.81467254E-008      27.76  <-- SCF
      9  -9.35253831E+003  1.55567451E+001   7.23123465E-011      28.17  <-- SCF
------------------------------------------------------------------------ <-- SCF

Final energy, E             =  -9352.401212844     eV
Final free energy (E-TS)    =  -9352.538310868     eV
(energies not corrected for finite basis set)

NB est. 0K energy (E-0.5TS)      =  -9352.469761856     eV
>>>>>>> test

 For future reference: finite basis dEtot/dlog(Ecut) =      -6.900552eV
 Total energy corrected for finite basis set =   -9352.546102 eV

 ***************** Symmetrised Forces *****************
 *            Cartesian components (eV/A)             *
 *                   x            y            z      *
 * Mg        1      0.00000      0.00000      0.00000 *
 * Mg        2      0.00000      0.00000      0.00000 *
 * Ca        1      0.00000      0.00000      0.00000 *
 * Ca        2      0.00000      0.00000      0.00000 *
 * Ca        3      0.00000      0.00000      0.00000 *
 * Ca        4      0.00000      0.00000      0.00000 *
 * Ca        5      0.00000      0.00000      0.00000 *
 * Ca        6      0.00000      0.00000      0.00000 *

 *********** Symmetrised Stress Tensor ***********
 *          Cartesian components (GPa)           *
 *             x             y             z     *
<<<<<<< HEAD
 *  x   -174.290436      0.000000      0.000000  *
 *  y      0.000000   -197.734015      0.000000  *
 *  z      0.000000      0.000000   -197.734015  *
 *  x   -197.734013      0.000000      0.000000  *
 *  y      0.000000   -174.290434      0.000000  *
 *  z      0.000000      0.000000   -197.734013  *
>>>>>>> test
 *  Pressure:  189.9195                          *

[...]

 Pseudo atomic calculation performed for Ca 3s2 3p6 4s2

 Converged in 24 iterations to a total energy of -1001.5365 eV

Charge spilling parameter for spin component 1 = 0.31%

     Atomic Populations (Mulliken)
Species   Ion     s      p      d      f     Total  Charge (e)
  Mg       1     2.43   8.17   0.00   0.00  10.61    -0.61
  Mg       2     2.43   8.17   0.00   0.00  10.61    -0.61
  Ca       1     1.58   5.76   2.35   0.00   9.69     0.31
  Ca       2     1.58   5.76   2.35   0.00   9.69     0.31
  Ca       3     1.58   5.76   2.35   0.00   9.69     0.31
<<<<<<< HEAD
  Ca       4     1.58   5.76   2.35   0.00   9.69     0.31
  Ca       5     2.03   5.74   2.24   0.00  10.01    -0.01
  Ca       4     2.03   5.74   2.24   0.00  10.01    -0.01
  Ca       5     1.58   5.76   2.35   0.00   9.69     0.31
>>>>>>> test
  Ca       6     2.03   5.74   2.24   0.00  10.01    -0.01

            Bond              Population      Length (A)
<<<<<<< HEAD
         Ca 5 -- Ca 6             -1.84        2.10000
         Ca 4 -- Ca 6             -1.77        2.10000
         Ca 3 -- Ca 5             -1.77        2.10000
         Ca 3 -- Ca 4             -1.02        2.10000
         Ca 2 -- Ca 6             -1.77        2.10000
         Ca 1 -- Ca 5             -1.77        2.10000
         Ca 1 -- Ca 2             -1.02        2.10000
         Mg 2 -- Ca 4             -1.73        2.10000
         Ca 5 -- Ca 6             -1.77        2.10000
         Ca 4 -- Ca 6             -1.84        2.10000
         Ca 3 -- Ca 5             -1.02        2.10000
         Ca 3 -- Ca 4             -1.77        2.10000
         Ca 2 -- Ca 6             -1.77        2.10000
         Ca 1 -- Ca 4             -1.77        2.10000
         Ca 1 -- Ca 2             -1.02        2.10000
         Mg 2 -- Ca 5             -1.73        2.10000
>>>>>>> test
         Mg 2 -- Ca 2             -1.73        2.10000
         Mg 1 -- Ca 3             -1.73        2.10000
         Mg 1 -- Ca 1             -1.73        2.10000
         Mg 1 -- Mg 2              2.96        2.10000
         Ca 4 -- Ca 5              0.96        2.96985
         Ca 3 -- Ca 6              0.96        2.96985
<<<<<<< HEAD
         Ca 2 -- Ca 5              0.96        2.96985
         Ca 2 -- Ca 4             -0.50        2.96985
         Ca 2 -- Ca 5             -0.50        2.96985
         Ca 2 -- Ca 4              0.96        2.96985
>>>>>>> test
         Ca 1 -- Ca 6              0.96        2.96985
         Ca 1 -- Ca 3             -0.50        2.96985
         Mg 2 -- Ca 6             -0.10        2.96985
         Mg 2 -- Ca 3             -2.37        2.96985
         Mg 2 -- Ca 1             -2.37        2.96985
<<<<<<< HEAD
         Mg 1 -- Ca 5             -0.10        2.96985
         Mg 1 -- Ca 4             -2.37        2.96985
         Mg 1 -- Ca 5             -2.37        2.96985
         Mg 1 -- Ca 4             -0.10        2.96985
>>>>>>> test
         Mg 1 -- Ca 2             -2.37        2.96985

Writing analysis data to ../2.castep_bin

Writing model to ../2.check

 A BibTeX formatted list of references used in this run has been written to
 ../2.bib

<<<<<<< HEAD
Initialisation time =      8.27 s
Calculation time    =     21.75 s
Finalisation time   =      0.48 s
Total time          =     30.50 s
Initialisation time =      8.87 s
Calculation time    =     21.65 s
Finalisation time   =      0.02 s
Total time          =     30.54 s
>>>>>>> test