 Run started: Thu, 28 Apr 2016 19:37:15 +0100

 Atomic calculation performed for Mg: 1s2 2s2 2p6 3s2

 Converged in 47 iterations to an ae energy of -5427.407 eV

   | Pseudopotential Report - Date of generation 28-04-2016   |
   | Element: Mg Ionic charge: 10.00 Level of theory: LDA     |
   | Atomic Solver: Koelling-Harmon                           |
   |               Reference Electronic Structure             |
   |         Orbital         Occupation         Energy        |
   |            2s              2.000           -2.914        |
   |            2p              6.000           -1.717        |
   |            3s              2.000           -0.176        |
   |                 Pseudopotential Definition               |
   |        Beta     l      e      Rc     scheme   norm       |
   |          1      0   -2.914   1.804     qc      0         |
   |          2      0   -0.176   1.804     qc      0         |
   |          3      0    0.250   1.804     qc      0         |
   |          4      1   -1.717   1.804     qc      0         |
   |          5      1    0.250   1.804     qc      0         |
   |          6      2    0.000   1.804     qc      0         |
   |          7      2    0.250   1.804     qc      0         |
   |         loc     3    0.000   1.804     pn      0         |
   | Augmentation charge Rinner = 1.261                       |
   | Partial core correction Rc = 1.261                       |
   | "3|1.8|7|8|9|20U:30:21:32"                               |
   |      Author: Chris J. Pickard, Cambridge University      |

 Atomic calculation performed for Ca: 1s2 2s2 2p6 3s2 3p6 4s2

 Converged in 44 iterations to an ae energy of -18468.059 eV

   | Pseudopotential Report - Date of generation 28-04-2016   |
   | Element: Ca Ionic charge: 10.00 Level of theory: LDA     |
   | Atomic Solver: Koelling-Harmon                           |
   |               Reference Electronic Structure             |
   |         Orbital         Occupation         Energy        |
   |            3s              2.000           -1.721        |
   |            3p              6.000           -1.028        |
   |            4s              2.000           -0.142        |
   |                 Pseudopotential Definition               |
   |        Beta     l      e      Rc     scheme   norm       |
   |          1      0   -1.721   2.005     qc      0         |
   |          2      0   -0.142   2.005     qc      0         |
   |          3      0    0.250   2.005     qc      0         |
   |          4      1   -1.028   2.005     qc      0         |
   |          5      1    0.250   2.005     qc      0         |
   |          6      2    0.000   2.005     qc      0         |
   |          7      2    0.250   2.005     qc      0         |
   |         loc     3    0.000   2.005     pn      0         |
   | Augmentation charge Rinner = 1.401                       |
   | Partial core correction Rc = 1.401                       |
   | "3|2.0|7|8|9|30U:40:31:32"                               |
   |      Author: Chris J. Pickard, Cambridge University      |

 Pseudo atomic calculation performed for Mg 2s2 2p6 3s2

 Converged in 19 iterations to a total energy of -1684.3182 eV

[...]

 Calculation not parallelised.

 ************************************ Title ************************************
 MgO

 ***************************** General Parameters ******************************

 output verbosity                               : normal  (1)
 write checkpoint data to                       : ../6.check
 type of calculation                            : single point energy
 stress calculation                             : on
 density difference calculation                 : off
 electron localisation func (ELF) calculation   : off
 Hirshfeld analysis                             : off
 unlimited duration calculation
 timing information                             : on
 write final potential to formatted file        : off
 write final density to formatted file          : off
 write BibTeX reference list                    : on
 write OTFG pseudopotential files               : on
 checkpoint writing                             : both castep_bin and check files

 output         length unit                     : A
 output           mass unit                     : amu
 output           time unit                     : ps
 output         charge unit                     : e
 output           spin unit                     : hbar/2
 output         energy unit                     : eV
 output          force unit                     : eV/A
 output       velocity unit                     : A/ps
 output       pressure unit                     : GPa
 output     inv_length unit                     : 1/A
 output      frequency unit                     : cm-1
 output force constant unit                     : eV/A**2
 output         volume unit                     : A**3
 output   IR intensity unit                     : (D/A)**2/amu
 output         dipole unit                     : D
 output         efield unit                     : eV/A/e
 output        entropy unit                     : J/mol/K

 wavefunctions paging                           : none
 random number generator seed                   : randomised (193716007)
 data distribution                              : optimal for this architecture
 optimization strategy                          : maximize speed(+++)

 *********************** Exchange-Correlation Parameters ***********************

 using functional                               : Local Density Approximation
 relativistic treatment                         : Koelling-Harmon
 DFT+D: Semi-empirical dispersion correction    : off

 ************************* Pseudopotential Parameters **************************

 pseudopotential representation                 : reciprocal space
 <beta|phi> representation                      : reciprocal space
 spin-orbit coupling                            : off

 **************************** Basis Set Parameters *****************************

 plane wave basis set cut-off                   :   280.0000   eV
 size of standard grid                          :     2.0000
 size of   fine   gmax                          :    17.1454   1/A
 finite basis set correction                    : automatic
 number of sample energies                      :          3
           sample  spacing                      :     5.0000   eV

 **************************** Electronic Parameters ****************************

 number of  electrons                           :  80.00
 net charge of system                           :  0.000
 treating system as non-spin-polarized
 number of bands                                :         48

 ********************* Electronic Minimization Parameters **********************

 Method: Treating system as metallic with density mixing treatment of electrons,
         and number of  SD  steps               :          1
         and number of  CG  steps               :          4

 total energy / atom convergence tol.           : 0.1000E-06   eV
 eigen-energy convergence tolerance             : 0.2000E-07   eV
 max force / atom convergence tol.              : ignored
 convergence tolerance window                   :          3   cycles
 max. number of SCF cycles                      :         60
 number of fixed-spin iterations                :         10
 smearing scheme                                : Gaussian
 smearing width                                 : 0.2000       eV
 Fermi energy convergence tolerance             : 0.2721E-13   eV
 periodic dipole correction                     : NONE

 ************************** Density Mixing Parameters **************************

 density-mixing scheme                          : Pulay
 max. length of mixing history                  :         30
 charge density mixing amplitude                : 0.8000
 cut-off energy for mixing                      :  280.0       eV

 *********************** Population Analysis Parameters ************************

 Population analysis with cutoff                :  3.000       A

                                      Unit Cell
        Real Lattice(A)                      Reciprocal Lattice(1/A)
   4.2000000   0.0000000   0.0000000        1.4959965   0.0000000   0.0000000
   0.0000000   4.2000000   0.0000000        0.0000000   1.4959965   0.0000000
   0.0000000   0.0000000   4.2000000        0.0000000   0.0000000   1.4959965

                       Lattice parameters(A)       Cell Angles
                    a =    4.200000          alpha =   90.000000
                    b =    4.200000          beta  =   90.000000
                    c =    4.200000          gamma =   90.000000

                       Current cell volume =   74.088000       A**3

                                     Cell Contents
                         Total number of ions in cell =    8
                      Total number of species in cell =    2
                        Max number of any one species =    6

            x  Element    Atom        Fractional coordinates of atoms  x
            x            Number           u          v          w      x
            x  Mg           1         0.500000   0.000000   0.000000   x
            x  Mg           2         0.000000   0.500000   0.000000   x
            x  Mg           3         0.500000   0.500000   0.000000   x
            x  Mg           4         0.000000   0.000000   0.500000   x
            x  Mg           5         0.500000   0.000000   0.500000   x
            x  Mg           6         0.500000   0.500000   0.500000   x
            x  Ca           1         0.000000   0.000000   0.000000   x
            x  Ca           2         0.000000   0.500000   0.500000   x

                         No user defined ionic velocities

                                   Details of Species

                               Mass of species in AMU
                                    Mg   24.3050000
                                    Ca   40.0780000

                          Electric Quadrupole Moment (Barn)
                                    Mg    0.1994000 Isotope 25
                                    Ca   -0.0408000 Isotope 43

                          Files used for pseudopotentials:
                                    Mg 3|1.8|7|8|9|20U:30:21:32
                                    Ca 3|2.0|7|8|9|30U:40:31:32

                              k-Points For BZ Sampling
                       MP grid size for SCF calculation is  3  3  3
                            with an offset of   0.000  0.000  0.000
                       Number of kpoints used =             6

                               Symmetry and Constraints

                      Cell is a supercell containing 2 primitive cells
                      Maximum deviation from symmetry = 0.940008E-15     ANG

                      Number of symmetry operations   =          32
                      Number of ionic constraints     =           3
                      Point group of crystal =    15: D4h, 4/mmm, 4/m 2/m 2/m
                      Space group of crystal =   123: P4/mmm, -P 4 2

             Set iprint > 1 for details on symmetry rotations/translations

                         Centre of mass is constrained
             Set iprint > 1 for details of linear ionic constraints

                         Number of cell constraints= 5
                         Cell constraints are:  1 1 1 0 0 0

                         External pressure/stress (GPa)
                          0.00000   0.00000   0.00000
                                    0.00000   0.00000
                                              0.00000

Final energy, E             =  -12088.33654208     eV
Final free energy (E-TS)    =  -12088.37280839     eV
(energies not corrected for finite basis set)

NB est. 0K energy (E-0.5TS)      =  -12088.35467523     eV

Calculating total energy with cut-off of  275.000eV.
------------------------------------------------------------------------ <-- SCF
SCF loop      Energy           Fermi           Energy gain       Timer   <-- SCF
                               energy          per atom          (sec)   <-- SCF
------------------------------------------------------------------------ <-- SCF
Initial  -1.20883365E+004  0.00000000E+000                        16.59  <-- SCF
      1  -1.20886141E+004  1.21268894E+001   3.46962180E-002      17.17  <-- SCF
      2  -1.20886144E+004  1.21268891E+001   4.12307104E-005      17.87  <-- SCF
      3  -1.20886142E+004  1.21295549E+001  -3.57897624E-005      18.51  <-- SCF
      4  -1.20886142E+004  1.21271732E+001   1.14830808E-006      19.15  <-- SCF
      5  -1.20886142E+004  1.21293108E+001  -6.56821164E-007      19.71  <-- SCF
      6  -1.20886142E+004  1.21282547E+001  -4.64309843E-007      20.26  <-- SCF
      7  -1.20886142E+004  1.21284751E+001  -3.91217529E-008      20.68  <-- SCF
      8  -1.20886142E+004  1.21284848E+001   9.62102236E-010      21.10  <-- SCF
------------------------------------------------------------------------ <-- SCF

[...]

Calculating total energy with cut-off of  280.000eV.
------------------------------------------------------------------------ <-- SCF
SCF loop      Energy           Fermi           Energy gain       Timer   <-- SCF
                               energy          per atom          (sec)   <-- SCF
------------------------------------------------------------------------ <-- SCF
Initial  -1.20885780E+004  0.00000000E+000                        21.32  <-- SCF
      1  -1.20887562E+004  1.21270514E+001   2.22723651E-002      21.86  <-- SCF
      2  -1.20887564E+004  1.21270514E+001   2.06430566E-005      22.52  <-- SCF
      3  -1.20887562E+004  1.21287058E+001  -1.40810911E-005      23.23  <-- SCF
      4  -1.20887562E+004  1.21271703E+001   4.79182405E-007      23.83  <-- SCF
      5  -1.20887562E+004  1.21287576E+001  -9.39039625E-008      24.38  <-- SCF
      6  -1.20887562E+004  1.21278334E+001  -3.64680251E-007      24.92  <-- SCF
      7  -1.20887562E+004  1.21280155E+001  -2.55465599E-008      25.33  <-- SCF
      8  -1.20887562E+004  1.21280210E+001   6.84067064E-010      25.73  <-- SCF
------------------------------------------------------------------------ <-- SCF

Final energy, E             =  -12088.72016146     eV
Final free energy (E-TS)    =  -12088.75624479     eV
(energies not corrected for finite basis set)

NB est. 0K energy (E-0.5TS)      =  -12088.73820313     eV

 For future reference: finite basis dEtot/dlog(Ecut) =      -9.595782eV
 Total energy corrected for finite basis set =  -12088.767080 eV

 ***************** Symmetrised Forces *****************
 *            Cartesian components (eV/A)             *
 *                   x            y            z      *
 * Mg        1      0.00000      0.00000      0.00000 *
 * Mg        2      0.00000      0.00000      0.00000 *
 * Mg        3      0.00000      0.00000      0.00000 *
 * Mg        4      0.00000      0.00000      0.00000 *
 * Mg        5      0.00000      0.00000      0.00000 *
 * Mg        6      0.00000      0.00000      0.00000 *
 * Ca        1      0.00000      0.00000      0.00000 *
 * Ca        2      0.00000      0.00000      0.00000 *

 *********** Symmetrised Stress Tensor ***********
 *          Cartesian components (GPa)           *
 *             x             y             z     *
 *  x   -192.245141      0.000000      0.000000  *
 *  y      0.000000   -185.708521      0.000000  *
 *  z      0.000000      0.000000   -185.708521  *
 *  Pressure:  187.8874                          *

[...]

 Pseudo atomic calculation performed for Ca 3s2 3p6 4s2

 Converged in 24 iterations to a total energy of -1001.5365 eV

Charge spilling parameter for spin component 1 = 0.52%

     Atomic Populations (Mulliken)
Species   Ion     s      p      d      f     Total  Charge (e)
  Mg       1     2.20   7.71   0.00   0.00   9.91     0.09
  Mg       2     2.44   7.70   0.00   0.00  10.14    -0.14
  Mg       3     2.46   9.19   0.00   0.00  11.64    -1.64
  Mg       4     2.44   7.70   0.00   0.00  10.14    -0.14
  Mg       5     2.46   9.19   0.00   0.00  11.64    -1.64
  Mg       6     2.20   7.71   0.00   0.00   9.91     0.09
  Ca       1    -0.15   5.74   2.72   0.00   8.31     1.69
  Ca       2    -0.15   5.74   2.72   0.00   8.31     1.69

            Bond              Population      Length (A)
         Mg 6 -- Ca 2            -20.81        2.10000
         Mg 5 -- Mg 6             -3.05        2.10000
         Mg 4 -- Ca 2            -13.92        2.10000
         Mg 4 -- Ca 1            -13.92        2.10000
         Mg 4 -- Mg 5             -2.83        2.10000
         Mg 3 -- Mg 6             -3.05        2.10000
         Mg 2 -- Ca 2            -13.92        2.10000
         Mg 2 -- Ca 1            -13.92        2.10000
         Mg 2 -- Mg 3             -2.83        2.10000
         Mg 1 -- Ca 1            -20.81        2.10000
         Mg 1 -- Mg 5             -3.05        2.10000
         Mg 1 -- Mg 3             -3.05        2.10000
         Ca 1 -- Ca 2            -11.39        2.96985
         Mg 5 -- Ca 2             -0.23        2.96985
         Mg 5 -- Ca 1             -0.23        2.96985
         Mg 4 -- Mg 6              5.15        2.96985
         Mg 3 -- Ca 2             -0.23        2.96985
         Mg 3 -- Ca 1             -0.23        2.96985
         Mg 3 -- Mg 5              3.19        2.96985
         Mg 2 -- Mg 6              5.15        2.96985
         Mg 2 -- Mg 4              8.09        2.96985
         Mg 1 -- Mg 6             -2.01        2.96985
         Mg 1 -- Mg 4              5.15        2.96985
         Mg 1 -- Mg 2              5.15        2.96985

Writing analysis data to ../6.castep_bin

Writing model to ../6.check

 A BibTeX formatted list of references used in this run has been written to
 ../6.bib

Initialisation time =      8.86 s
Calculation time    =     19.24 s
Finalisation time   =      0.02 s
Total time          =     28.12 s