 Run started: Tue, 26 Apr 2016 13:05:28 +0100

 Atomic calculation performed for O: 1s2 2s2 2p4

 Converged in 60 iterations to an ae energy of -2027.926 eV

   | Pseudopotential Report - Date of generation 26-04-2016   |
   | Element: O Ionic charge:  6.00 Level of theory: LDA      |
   | Atomic Solver: Koelling-Harmon                           |
   |               Reference Electronic Structure             |
   |         Orbital         Occupation         Energy        |
   |            2s              2.000           -0.873        |
   |            2p              4.000           -0.338        |
   |                 Pseudopotential Definition               |
   |        Beta     l      e      Rc     scheme   norm       |
   |          1      0   -0.873   1.100     qc      0         |
   |          2      0    0.250   1.100     qc      0         |
   |          3      1   -0.338   1.100     qc      0         |
   |          4      1    0.250   1.100     qc      0         |
   |         loc     2    0.000   1.100     pn      0         |
   | Augmentation charge Rinner = 0.769                       |
   | Partial core correction Rc = 0.769                       |
   | "2|1.1|15|18|20|20:21(qc=7)"                             |
   |      Author: Chris J. Pickard, Cambridge University      |

 Atomic calculation performed for Mg: 1s2 2s2 2p6 3s2

[...]

   | Pseudopotential Report - Date of generation 26-04-2016   |
   | Element: Mg Ionic charge: 10.00 Level of theory: LDA     |
   | Atomic Solver: Koelling-Harmon                           |
   |               Reference Electronic Structure             |
   |         Orbital         Occupation         Energy        |
   |            2s              2.000           -2.914        |
   |            2p              6.000           -1.717        |
   |            3s              2.000           -0.176        |
   |                 Pseudopotential Definition               |
   |        Beta     l      e      Rc     scheme   norm       |
   |          1      0   -2.914   1.804     qc      0         |
   |          2      0   -0.176   1.804     qc      0         |
   |          3      0    0.250   1.804     qc      0         |
   |          4      1   -1.717   1.804     qc      0         |
   |          5      1    0.250   1.804     qc      0         |
   |          6      2    0.000   1.804     qc      0         |
   |          7      2    0.250   1.804     qc      0         |
   |         loc     3    0.000   1.804     pn      0         |
   | Augmentation charge Rinner = 1.261                       |
   | Partial core correction Rc = 1.261                       |
   | "3|1.8|7|8|9|20U:30:21:32"                               |
   |      Author: Chris J. Pickard, Cambridge University      |

 Atomic calculation performed for Ca: 1s2 2s2 2p6 3s2 3p6 4s2

 Converged in 44 iterations to an ae energy of -18468.059 eV

   | Pseudopotential Report - Date of generation 26-04-2016   |
   | Element: Ca Ionic charge: 10.00 Level of theory: LDA     |
   | Atomic Solver: Koelling-Harmon                           |
   |               Reference Electronic Structure             |
   |         Orbital         Occupation         Energy        |
   |            3s              2.000           -1.721        |
   |            3p              6.000           -1.028        |
   |            4s              2.000           -0.142        |
   |                 Pseudopotential Definition               |
   |        Beta     l      e      Rc     scheme   norm       |
   |          1      0   -1.721   2.005     qc      0         |
   |          2      0   -0.142   2.005     qc      0         |
   |          3      0    0.250   2.005     qc      0         |
   |          4      1   -1.028   2.005     qc      0         |
   |          5      1    0.250   2.005     qc      0         |
   |          6      2    0.000   2.005     qc      0         |
   |          7      2    0.250   2.005     qc      0         |
   |         loc     3    0.000   2.005     pn      0         |
   | Augmentation charge Rinner = 1.401                       |
   | Partial core correction Rc = 1.401                       |
   | "3|2.0|7|8|9|30U:40:31:32"                               |
   |      Author: Chris J. Pickard, Cambridge University      |

 Pseudo atomic calculation performed for O 2s2 2p4

 Converged in 28 iterations to a total energy of -424.4682 eV

 Pseudo atomic calculation performed for Mg 2s2 2p6 3s2

[...]

 Calculation not parallelised.

 ************************************ Title ************************************
 MgO

 ***************************** General Parameters ******************************

 output verbosity                               : normal  (1)
 write checkpoint data to                       : ../testcell6.check
 type of calculation                            : single point energy
 stress calculation                             : on
 density difference calculation                 : off
 electron localisation func (ELF) calculation   : off
 Hirshfeld analysis                             : off
 unlimited duration calculation
 timing information                             : on
 write final potential to formatted file        : off
 write final density to formatted file          : off
 write BibTeX reference list                    : on
 write OTFG pseudopotential files               : on
 checkpoint writing                             : both castep_bin and check files

 output         length unit                     : A
 output           mass unit                     : amu
 output           time unit                     : ps
 output         charge unit                     : e
 output           spin unit                     : hbar/2
 output         energy unit                     : eV
 output          force unit                     : eV/A
 output       velocity unit                     : A/ps
 output       pressure unit                     : GPa
 output     inv_length unit                     : 1/A
 output      frequency unit                     : cm-1
 output force constant unit                     : eV/A**2
 output         volume unit                     : A**3
 output   IR intensity unit                     : (D/A)**2/amu
 output         dipole unit                     : D
 output         efield unit                     : eV/A/e
 output        entropy unit                     : J/mol/K

 wavefunctions paging                           : none
 random number generator seed                   : randomised (130528953)
 data distribution                              : optimal for this architecture
 optimization strategy                          : maximize speed(+++)

 *********************** Exchange-Correlation Parameters ***********************

 using functional                               : Local Density Approximation
 relativistic treatment                         : Koelling-Harmon
 DFT+D: Semi-empirical dispersion correction    : off

 ************************* Pseudopotential Parameters **************************

 pseudopotential representation                 : reciprocal space
 <beta|phi> representation                      : reciprocal space
 spin-orbit coupling                            : off

 **************************** Basis Set Parameters *****************************

 plane wave basis set cut-off                   :   280.0000   eV
 size of standard grid                          :     2.0000
 size of   fine   gmax                          :    17.1454   1/A
 finite basis set correction                    : automatic
 number of sample energies                      :          3
           sample  spacing                      :     5.0000   eV

 **************************** Electronic Parameters ****************************

 number of  electrons                           :  64.00
 net charge of system                           :  0.000
 treating system as non-spin-polarized
 number of bands                                :         38

 ********************* Electronic Minimization Parameters **********************

 Method: Treating system as metallic with density mixing treatment of electrons,
         and number of  SD  steps               :          1
         and number of  CG  steps               :          4

 total energy / atom convergence tol.           : 0.1000E-06   eV
 eigen-energy convergence tolerance             : 0.2500E-07   eV
 max force / atom convergence tol.              : ignored
 convergence tolerance window                   :          3   cycles
 max. number of SCF cycles                      :         60
 number of fixed-spin iterations                :         10
 smearing scheme                                : Gaussian
 smearing width                                 : 0.2000       eV
 Fermi energy convergence tolerance             : 0.2721E-13   eV
 periodic dipole correction                     : NONE

 ************************** Density Mixing Parameters **************************

 density-mixing scheme                          : Pulay
 max. length of mixing history                  :         30
 charge density mixing amplitude                : 0.8000
 cut-off energy for mixing                      :  280.0       eV

 *********************** Population Analysis Parameters ************************

 Population analysis with cutoff                :  3.000       A

                                      Unit Cell
        Real Lattice(A)                      Reciprocal Lattice(1/A)
   4.2000000   0.0000000   0.0000000        1.4959965   0.0000000   0.0000000
   0.0000000   4.2000000   0.0000000        0.0000000   1.4959965   0.0000000
   0.0000000   0.0000000   4.2000000        0.0000000   0.0000000   1.4959965

                       Lattice parameters(A)       Cell Angles
                    a =    4.200000          alpha =   90.000000
                    b =    4.200000          beta  =   90.000000
                    c =    4.200000          gamma =   90.000000

                       Current cell volume =   74.088000       A**3

                                     Cell Contents
                         Total number of ions in cell =    8
                      Total number of species in cell =    3
                        Max number of any one species =    4

            x  Element    Atom        Fractional coordinates of atoms  x
            x            Number           u          v          w      x
            x  O            1         0.500000   0.500000   0.500000   x
            x  O            2         0.500000   0.000000   0.000000   x
            x  O            3         0.000000   0.500000   0.000000   x
            x  O            4         0.000000   0.000000   0.500000   x
            x  Mg           1         0.000000   0.000000   0.000000   x
            x  Ca           1         0.000000   0.500000   0.500000   x
            x  Ca           2         0.500000   0.000000   0.500000   x
            x  Ca           3         0.500000   0.500000   0.000000   x

                         No user defined ionic velocities

                                   Details of Species

                               Mass of species in AMU
                                    O   15.9994000
                                    Mg   24.3050000
                                    Ca   40.0780000

                          Electric Quadrupole Moment (Barn)
                                    O   -0.0255800 Isotope 17
                                    Mg    0.1994000 Isotope 25
                                    Ca   -0.0408000 Isotope 43

                          Files used for pseudopotentials:
                                    O 2|1.1|15|18|20|20:21(qc=7)
                                    Mg 3|1.8|7|8|9|20U:30:21:32
                                    Ca 3|2.0|7|8|9|30U:40:31:32

                              k-Points For BZ Sampling
                       MP grid size for SCF calculation is  3  3  3
                            with an offset of   0.000  0.000  0.000
                       Number of kpoints used =             4

                               Symmetry and Constraints

                      Maximum deviation from symmetry = 0.940008E-15     ANG

                      Number of symmetry operations   =          48
                      Number of ionic constraints     =           3
                      Point group of crystal =    32: Oh, m-3m, 4/m -3 2/m
                      Space group of crystal =   221: Pm-3m, -P 4 2 3

             Set iprint > 1 for details on symmetry rotations/translations

                         Centre of mass is constrained
             Set iprint > 1 for details of linear ionic constraints

                         Number of cell constraints= 5
                         Cell constraints are:  1 1 1 0 0 0

                         External pressure/stress (GPa)
                          0.00000   0.00000   0.00000
                                    0.00000   0.00000
                                              0.00000

Final energy, E             =  -6428.290537868     eV
Final free energy (E-TS)    =  -6428.290537868     eV
(energies not corrected for finite basis set)

NB est. 0K energy (E-0.5TS)      =  -6428.290537868     eV

Calculating total energy with cut-off of  275.000eV.
------------------------------------------------------------------------ <-- SCF
SCF loop      Energy           Fermi           Energy gain       Timer   <-- SCF
                               energy          per atom          (sec)   <-- SCF
------------------------------------------------------------------------ <-- SCF
Initial  -6.42829054E+003  0.00000000E+000                        15.65  <-- SCF
      1  -6.43153546E+003  8.47247548E+000   4.05615850E-001      15.91  <-- SCF
      2  -6.43154400E+003  8.47754837E+000   1.06685040E-003      16.24  <-- SCF
      3  -6.43153555E+003  8.74651984E+000  -1.05626205E-003      16.55  <-- SCF
      4  -6.43151603E+003  8.60309584E+000  -2.43950093E-003      16.86  <-- SCF
      5  -6.43151605E+003  8.61298385E+000   1.46459629E-006      17.18  <-- SCF
      6  -6.43151604E+003  8.61001816E+000  -1.13001276E-006      17.48  <-- SCF
      7  -6.43151603E+003  8.61259583E+000  -1.21769545E-006      17.77  <-- SCF
      8  -6.43151603E+003  8.61185072E+000  -7.02203155E-008      17.99  <-- SCF
      9  -6.43151603E+003  8.61184311E+000   1.16811508E-009      18.20  <-- SCF
------------------------------------------------------------------------ <-- SCF

[...]

Calculating total energy with cut-off of  280.000eV.
------------------------------------------------------------------------ <-- SCF
SCF loop      Energy           Fermi           Energy gain       Timer   <-- SCF
                               energy          per atom          (sec)   <-- SCF
------------------------------------------------------------------------ <-- SCF
Initial  -6.43151603E+003  0.00000000E+000                        18.35  <-- SCF
      1  -6.43383543E+003  8.61193389E+000   2.89925847E-001      18.59  <-- SCF
      2  -6.43383941E+003  8.61193389E+000   4.97286281E-004      18.90  <-- SCF
      3  -6.43383536E+003  8.79048514E+000  -5.06010209E-004      19.23  <-- SCF
      4  -6.43382647E+003  8.68869458E+000  -1.11194576E-003      19.58  <-- SCF
      5  -6.43382637E+003  8.69963273E+000  -1.18320585E-005      19.91  <-- SCF
      6  -6.43382637E+003  8.69726549E+000  -2.48228564E-008      20.23  <-- SCF
      7  -6.43382636E+003  8.69938480E+000  -1.16011790E-006      20.53  <-- SCF
      8  -6.43382636E+003  8.69872726E+000  -5.66487962E-008      20.76  <-- SCF
      9  -6.43382636E+003  8.69872890E+000   1.36852083E-009      20.98  <-- SCF
------------------------------------------------------------------------ <-- SCF

Final energy, E             =  -6433.826362581     eV
Final free energy (E-TS)    =  -6433.826362581     eV
(energies not corrected for finite basis set)

NB est. 0K energy (E-0.5TS)      =  -6433.826362581     eV

 For future reference: finite basis dEtot/dlog(Ecut) =    -137.843491eV
 Total energy corrected for finite basis set =   -6433.982005 eV

 ***************** Symmetrised Forces *****************
 *            Cartesian components (eV/A)             *
 *                   x            y            z      *
 * O         1      0.00000      0.00000      0.00000 *
 * O         2      0.00000      0.00000      0.00000 *
 * O         3      0.00000      0.00000      0.00000 *
 * O         4      0.00000      0.00000      0.00000 *
 * Mg        1      0.00000      0.00000      0.00000 *
 * Ca        1      0.00000      0.00000      0.00000 *
 * Ca        2      0.00000      0.00000      0.00000 *
 * Ca        3      0.00000      0.00000      0.00000 *

 *********** Symmetrised Stress Tensor ***********
 *          Cartesian components (GPa)           *
 *             x             y             z     *
 *  x    -83.489594      0.000000      0.000000  *
 *  y      0.000000    -83.489594      0.000000  *
 *  z      0.000000      0.000000    -83.489594  *
 *  Pressure:   83.4896                          *

 Pseudo atomic calculation performed for O 2s2 2p4

[...]

 Pseudo atomic calculation performed for Ca 3s2 3p6 4s2

 Converged in 24 iterations to a total energy of -1001.5365 eV

Charge spilling parameter for spin component 1 = 0.20%

     Atomic Populations (Mulliken)
Species   Ion     s      p      d      f     Total  Charge (e)
  O        1     1.85   5.01   0.00   0.00   6.87    -0.87
  O        2     1.85   5.07   0.00   0.00   6.92    -0.92
  O        3     1.85   5.07   0.00   0.00   6.92    -0.92
  O        4     1.85   5.07   0.00   0.00   6.92    -0.92
  Mg       1     2.35   6.74   0.00   0.00   9.09     0.91
  Ca       1     2.12   5.99   0.99   0.00   9.09     0.91
  Ca       2     2.12   5.99   0.99   0.00   9.09     0.91
  Ca       3     2.12   5.99   0.99   0.00   9.09     0.91

            Bond              Population      Length (A)
          O 4 -- Ca 2              0.21        2.10000
          O 4 -- Ca 1              0.21        2.10000
          O 4 -- Mg 1              0.52        2.10000
          O 3 -- Ca 3              0.21        2.10000
          O 3 -- Ca 1              0.21        2.10000
          O 3 -- Mg 1              0.52        2.10000
          O 2 -- Ca 3              0.21        2.10000
          O 2 -- Ca 2              0.21        2.10000
          O 2 -- Mg 1              0.52        2.10000
          O 1 -- Ca 3              0.16        2.10000
          O 1 -- Ca 2              0.16        2.10000
          O 1 -- Ca 1              0.16        2.10000
         Ca 2 -- Ca 3             -0.34        2.96985
         Ca 1 -- Ca 3             -0.34        2.96985
         Ca 1 -- Ca 2             -0.34        2.96985
         Mg 1 -- Ca 3             -0.34        2.96985
         Mg 1 -- Ca 2             -0.34        2.96985
         Mg 1 -- Ca 1             -0.34        2.96985
          O 3 -- O 4              -0.11        2.96985
          O 2 -- O 4              -0.11        2.96985
          O 2 -- O 3              -0.11        2.96985
          O 1 -- O 4              -0.05        2.96985
          O 1 -- O 3              -0.05        2.96985
          O 1 -- O 2              -0.05        2.96985

Writing analysis data to ../testcell6.castep_bin

Writing model to ../testcell6.check

 A BibTeX formatted list of references used in this run has been written to
 ../testcell6.bib

Initialisation time =     10.77 s
Calculation time    =     11.75 s
Finalisation time   =      0.35 s
Total time          =     22.87 s